30 39
29 25
51 10
13 26
29 22
54 18
3 30.5
40 43.5
33 18.5
19 14.5
22 54.5
42 26.5
52 19.5
8 30
46 53
38 28
22 71
49 54
18 62
47 41
16 67.5
18 84.5
35 56.5
25 51.5
40 47.5
49 82.5
16 57.5
34 72
4 60
28 74
29 63
28 81
29 91
28 59
23 106.5
9 103.5
13 96.5
39 100.5
38 84.5
6 65.5
42 76.5
1 121
44 100
13 118
14 124
31 99
26 97
14 98
20 109.5
15 98.5
